data;


param d:= 100;
param r:=5;
param p:=0.720000;
param M:=1000;
param U:=
         1         1        1.069327e-01
         2         1        9.727458e-01
         3         1       -1.529519e-01
         4         1        1.080831e+00
         5         1       -6.814095e-01
         6         1        8.294570e-01
         7         1        1.109234e+00
         8         1       -4.776908e-01
         9         1        1.380767e+00
        10         1       -2.412589e+00
        11         1       -9.780239e-01
        12         1       -1.734584e+00
        13         1        2.238707e-01
        14         1       -5.829354e-01
        15         1        6.903408e-01
        16         1        9.337327e-01
        17         1       -1.377056e+00
        18         1        4.928151e-01
        19         1       -1.658860e+00
        20         1       -1.903762e-01
        21         1        8.959294e-01
        22         1        4.656551e-01
        23         1       -1.218527e+00
        24         1        7.222869e-01
        25         1        1.204837e-01
        26         1        3.368288e-01
        27         1       -1.939503e-01
        28         1       -5.452599e-01
        29         1       -2.450247e-01
        30         1        2.096447e-01
        31         1        1.186831e+00
        32         1       -5.020350e-02
        33         1        6.507680e-01
        34         1        2.072600e+00
        35         1       -1.416408e+00
        36         1       -7.773842e-01
        37         1        2.209691e+00
        38         1       -1.347417e+00
        39         1       -1.836128e+00
        40         1       -2.122417e+00
        41         1        3.129111e-01
        42         1        8.339241e-01
        43         1        1.239133e+00
        44         1        1.083771e+00
        45         1        6.474710e-01
        46         1        6.458075e-02
        47         1        7.577862e-01
        48         1       -8.268505e-01
        49         1       -7.156840e-01
        50         1       -5.751411e-02
        51         1        1.180922e+00
        52         1       -4.983718e-01
        53         1       -2.190560e-02
        54         1       -2.294115e-01
        55         1        6.608084e-01
        56         1       -5.543172e-01
        57         1        1.637362e-01
        58         1        7.163336e-01
        59         1       -5.154923e-01
        60         1        1.907148e-01
        61         1       -1.696498e+00
        62         1       -8.196233e-02
        63         1        7.293599e-01
        64         1        9.496903e-01
        65         1       -2.093759e-01
        66         1        1.665024e+00
        67         1       -1.140466e+00
        68         1       -1.251182e+00
        69         1       -1.521824e+00
        70         1        1.795897e+00
        71         1        2.383869e-01
        72         1        4.440380e-01
        73         1        3.222720e-01
        74         1        2.795230e-01
        75         1       -7.153409e-01
        76         1        1.553000e+00
        77         1       -1.766831e+00
        78         1        3.664900e-01
        79         1        7.821372e-01
        80         1       -7.531292e-01
        81         1        8.549013e-04
        82         1        1.483371e+00
        83         1        8.856821e-01
        84         1       -6.160867e-01
        85         1       -1.583550e+00
        86         1        1.178648e+00
        87         1        7.406526e-02
        88         1        1.104537e+00
        89         1       -1.799043e+00
        90         1        2.954210e-01
        91         1       -1.028044e-01
        92         1       -1.613457e+00
        93         1       -6.213429e-01
        94         1        3.910327e-01
        95         1       -5.088821e-01
        96         1        9.200856e-01
        97         1        7.837425e-01
        98         1       -1.030955e+00
        99         1       -1.576265e-01
       100         1        2.289864e+00
         1         2        3.556054e-01
         2         2       -9.625117e-01
         3         2        9.616228e-01
         4         2        1.281205e+00
         5         2        3.430424e-01
         6         2        2.919133e-01
         7         2        1.723302e-02
         8         2        1.023037e+00
         9         2        8.763982e-01
        10         2       -6.718622e-01
        11         2       -7.943285e-01
        12         2        4.318617e-01
        13         2       -5.716686e-02
        14         2       -1.017546e+00
        15         2       -9.083493e-01
        16         2       -2.533805e-01
        17         2       -2.934265e-01
        18         2       -1.240272e+00
        19         2       -1.263132e+00
        20         2        2.121182e+00
        21         2        7.746758e-01
        22         2        1.440404e+00
        23         2        1.858414e+00
        24         2        1.266558e-01
        25         2       -3.269742e-01
        26         2       -1.562495e-01
        27         2       -7.053722e-01
        28         2        6.117383e-01
        29         2       -1.440749e+00
        30         2        4.566470e-01
        31         2        1.054123e+00
        32         2        1.112292e+00
        33         2       -5.733926e-01
        34         2        4.987876e-01
        35         2       -5.731538e-01
        36         2       -1.944106e+00
        37         2        1.075980e+00
        38         2       -1.057144e+00
        39         2        1.190410e+00
        40         2       -8.978316e-01
        41         2        2.102328e+00
        42         2       -5.849760e-02
        43         2       -7.197182e-03
        44         2        1.177884e+00
        45         2        1.689856e+00
        46         2       -8.185059e-01
        47         2        1.447949e-02
        48         2        6.205815e-01
        49         2       -1.114791e+00
        50         2       -1.493635e-01
        51         2        1.321867e+00
        52         2       -3.349305e-02
        53         2       -4.154504e-01
        54         2       -1.618504e+00
        55         2       -1.189838e+00
        56         2       -1.896975e+00
        57         2       -2.337326e-01
        58         2        5.309021e-01
        59         2       -5.249500e-02
        60         2        1.379866e+00
        61         2       -1.581606e-01
        62         2       -9.618397e-01
        63         2        6.918821e-01
        64         2       -5.846884e-01
        65         2       -5.552042e-02
        66         2       -1.465986e-02
        67         2       -3.339833e-01
        68         2        6.901384e-01
        69         2        1.518241e+00
        70         2        9.554577e-01
        71         2        5.813385e-01
        72         2        1.565335e+00
        73         2        5.586472e-02
        74         2       -7.431131e-01
        75         2        4.398714e-01
        76         2        1.899200e-01
        77         2       -2.362343e-01
        78         2        6.596534e-02
        79         2       -2.178967e-01
        80         2       -9.679265e-01
        81         2       -2.999796e-01
        82         2       -1.202804e-01
        83         2       -3.647598e+00
        84         2        2.750413e-01
        85         2       -1.775542e-01
        86         2        1.776587e-02
        87         2        9.647430e-01
        88         2       -2.007272e-01
        89         2        1.026693e+00
        90         2       -1.359651e-01
        91         2        1.849223e+00
        92         2       -4.731430e-01
        93         2       -1.775558e-01
        94         2       -1.035169e+00
        95         2        7.323084e-01
        96         2        1.115546e+00
        97         2       -2.001367e+00
        98         2       -1.180919e+00
        99         2       -6.629457e-01
       100         2        2.163298e+00
         1         3        4.045850e-01
         2         3       -8.010568e-01
         3         3       -6.907429e-02
         4         3       -2.253239e+00
         5         3       -8.187862e-01
         6         3       -5.962387e-01
         7         3        4.807754e-01
         8         3        1.366232e-01
         9         3        2.181463e-01
        10         3       -2.538341e-01
        11         3       -7.177189e-01
        12         3        6.437803e-01
        13         3        2.604349e-01
        14         3        4.156730e-01
        15         3       -1.434225e+00
        16         3       -7.113400e-01
        17         3       -1.524395e+00
        18         3       -6.493314e-01
        19         3        8.475626e-02
        20         3        5.869341e-01
        21         3        2.798654e+00
        22         3       -1.420168e+00
        23         3        7.276367e-01
        24         3       -6.194578e-01
        25         3        2.812013e-01
        26         3        1.148144e+00
        27         3        1.915710e+00
        28         3       -9.329314e-01
        29         3       -8.714212e-01
        30         3       -9.145234e-02
        31         3       -4.263707e-01
        32         3       -1.124889e+00
        33         3       -1.231568e-02
        34         3        6.402061e-01
        35         3        1.893375e+00
        36         3       -3.208448e-01
        37         3        3.082325e-01
        38         3        4.793517e-01
        39         3       -2.202604e-01
        40         3        9.816104e-01
        41         3        2.271713e-01
        42         3        9.930829e-01
        43         3        4.524920e-01
        44         3       -3.327914e-01
        45         3       -6.930025e-01
        46         3        1.619419e+00
        47         3       -4.758173e-01
        48         3        9.527713e-01
        49         3       -1.290665e+00
        50         3        2.066683e+00
        51         3        5.699276e-01
        52         3       -2.912915e+00
        53         3       -2.068157e+00
        54         3       -2.005490e+00
        55         3        1.564600e+00
        56         3       -2.111129e-01
        57         3       -1.066141e+00
        58         3        9.489595e-01
        59         3        4.711076e-02
        60         3       -1.092869e+00
        61         3        8.644385e-01
        62         3       -1.966493e-01
        63         3       -1.068625e+00
        64         3       -1.237699e+00
        65         3        7.005696e-01
        66         3        3.232238e-01
        67         3        1.328123e+00
        68         3       -4.974202e-01
        69         3        1.478739e-01
        70         3       -1.334240e+00
        71         3       -1.242018e+00
        72         3       -7.950853e-01
        73         3       -1.248427e+00
        74         3        1.173718e+00
        75         3        2.693851e-01
        76         3        5.600812e-01
        77         3       -1.522781e+00
        78         3       -1.867938e+00
        79         3       -2.053774e-01
        80         3       -2.044296e+00
        81         3        3.556576e-01
        82         3       -5.575932e-01
        83         3        2.508986e-01
        84         3       -3.801923e-01
        85         3       -4.748091e-01
        86         3       -1.739184e+00
        87         3       -3.628757e-01
        88         3        6.469239e-01
        89         3       -1.970511e+00
        90         3       -6.821551e-01
        91         3        1.080146e+00
        92         3       -1.562534e+00
        93         3       -1.390434e+00
        94         3       -4.565600e-01
        95         3        3.249514e-03
        96         3        5.955719e-01
        97         3       -1.241172e+00
        98         3        1.029283e+00
        99         3        1.043839e+00
       100         3       -4.868560e-01
         1         4        1.207835e+00
         2         4       -4.532957e-01
         3         4        6.236583e-01
         4         4       -6.406208e-01
         5         4        1.789786e+00
         6         4        5.795168e-01
         7         4        3.468047e-01
         8         4        5.965188e-01
         9         4       -9.910333e-01
        10         4       -7.515687e-01
        11         4        3.558785e-01
        12         4        1.660452e+00
        13         4        5.819245e-01
        14         4       -4.505612e-01
        15         4        1.386402e+00
        16         4        2.225911e-01
        17         4       -5.791076e-01
        18         4       -1.376082e+00
        19         4        5.480550e-01
        20         4        3.924679e-01
        21         4        4.960128e-01
        22         4        2.551121e+00
        23         4       -1.080558e+00
        24         4       -9.353265e-01
        25         4        1.117970e+00
        26         4       -8.569298e-01
        27         4        4.620225e-01
        28         4       -2.596535e+00
        29         4        1.225131e+00
        30         4        1.784335e+00
        31         4       -8.981954e-01
        32         4       -1.082146e-01
        33         4        1.325875e+00
        34         4        9.646377e-01
        35         4       -8.254705e-01
        36         4       -1.303784e+00
        37         4       -1.582733e+00
        38         4        5.480439e-01
        39         4       -1.273558e+00
        40         4       -1.835868e+00
        41         4       -1.154455e-01
        42         4        1.447157e+00
        43         4       -7.121712e-02
        44         4        4.601547e-01
        45         4        6.856829e-02
        46         4       -1.557254e+00
        47         4        2.556034e-02
        48         4        1.211058e+00
        49         4       -7.873729e-01
        50         4       -8.440419e-01
        51         4       -8.270170e-01
        52         4        4.477260e-01
        53         4        6.128992e-01
        54         4        1.397815e+00
        55         4        4.121716e-01
        56         4        3.127971e-01
        57         4        2.781076e-01
        58         4        1.181870e+00
        59         4        1.015576e+00
        60         4        1.408126e+00
        61         4       -2.014594e-01
        62         4       -2.729641e-01
        63         4        6.598887e-01
        64         4        2.922996e-03
        65         4        5.318565e-01
        66         4        9.174378e-01
        67         4        5.757207e-01
        68         4       -1.357828e+00
        69         4        3.057188e-01
        70         4        2.599782e-01
        71         4       -2.803753e-01
        72         4        3.101407e-01
        73         4        1.174495e+00
        74         4       -2.023566e+00
        75         4        3.596590e-01
        76         4        8.355621e-01
        77         4       -2.941946e-02
        78         4       -6.737146e-01
        79         4        3.586933e-01
        80         4        4.657781e-01
        81         4       -2.153935e+00
        82         4       -9.639904e-01
        83         4        2.666643e-01
        84         4        1.092336e+00
        85         4        5.909279e-01
        86         4       -9.942529e-01
        87         4       -1.092849e+00
        88         4        7.072738e-02
        89         4       -1.925496e+00
        90         4        1.972601e-01
        91         4       -1.063840e+00
        92         4        2.457952e-01
        93         4        3.674610e-01
        94         4       -2.174531e+00
        95         4        1.667089e-01
        96         4       -1.561299e+00
        97         4        5.477161e-01
        98         4        2.731157e-01
        99         4        3.101037e-01
       100         4       -3.795179e-01
         1         5        8.769549e-01
         2         5        9.980235e-01
         3         5        6.635190e-01
         4         5       -1.704043e+00
         5         5        4.543922e-02
         6         5        1.422646e+00
         7         5       -1.546082e+00
         8         5        6.705303e-01
         9         5        1.364008e+00
        10         5       -9.103858e-01
        11         5       -3.902067e-01
        12         5       -5.788801e-01
        13         5        8.523516e-01
        14         5        1.114650e+00
        15         5       -8.488937e-02
        16         5       -6.308668e-02
        17         5       -2.144528e-01
        18         5       -6.196965e-01
        19         5        8.613753e-01
        20         5        8.483654e-01
        21         5        1.333774e+00
        22         5        5.031647e-01
        23         5        5.883832e-01
        24         5        2.826391e-01
        25         5       -4.631735e-01
        26         5       -8.363501e-01
        27         5       -1.102560e+00
        28         5       -1.415551e+00
        29         5        1.027255e-01
        30         5        8.225654e-02
        31         5       -7.140182e-01
        32         5        4.203488e-01
        33         5       -1.063310e+00
        34         5        2.987521e-01
        35         5        6.995074e-01
        36         5       -3.534229e-01
        37         5        3.312083e-01
        38         5        9.037602e-01
        39         5        1.006704e+00
        40         5        1.511689e-02
        41         5       -4.759391e-01
        42         5       -5.290520e-01
        43         5       -1.095386e+00
        44         5       -2.096041e-01
        45         5       -1.025451e+00
        46         5       -5.720827e-01
        47         5        1.175157e+00
        48         5        1.680103e-01
        49         5        5.020254e-01
        50         5       -5.328469e-01
        51         5        1.307039e+00
        52         5        2.949358e-01
        53         5        2.008719e-01
        54         5        2.413095e-01
        55         5        5.323809e-01
        56         5       -8.593736e-01
        57         5       -5.434251e-01
        58         5       -8.090870e-01
        59         5       -1.052073e+00
        60         5       -9.897920e-01
        61         5        4.599240e-01
        62         5        1.685234e+00
        63         5        9.953193e-01
        64         5        9.522265e-02
        65         5       -7.231661e-03
        66         5       -2.291267e-01
        67         5       -1.981446e+00
        68         5        2.974395e-01
        69         5       -3.297149e-01
        70         5       -1.432189e+00
        71         5       -1.138817e-01
        72         5       -3.730610e-01
        73         5       -7.684599e-01
        74         5        8.811315e-01
        75         5        6.260114e-01
        76         5        7.513300e-01
        77         5       -1.285823e+00
        78         5       -1.058824e+00
        79         5        9.049490e-01
        80         5        1.311698e-01
        81         5        1.276991e+00
        82         5       -5.471095e-02
        83         5        2.982367e-01
        84         5        1.349774e+00
        85         5        5.184943e-01
        86         5        2.089113e-01
        87         5       -3.303835e-01
        88         5        1.807292e+00
        89         5       -1.677404e+00
        90         5        2.021621e+00
        91         5        1.192362e+00
        92         5        1.065750e+00
        93         5        9.678773e-01
        94         5        1.741074e+00
        95         5        4.538887e-01
        96         5       -4.882929e-01
        97         5        9.229275e-02
        98         5       -2.150242e-01
        99         5       -1.172910e-01
       100         5        1.749973e+00
;

param theta:=
    1        4.318133e-01
    2        7.990137e-01
    3        9.924483e-01
    4       -5.546624e-01
    5       -4.404724e-01
;
param X_true:=
    1       -3.248465e-01
    2       -1.332029e+00
    3       -3.580233e-03
    4        3.592186e-01
    5       -1.845217e+00
    6       -9.487421e-01
    7        1.457860e+00
    8        1.215187e-01
    9        1.461742e+00
   10       -1.013791e+00
   11       -1.794439e+00
   12       -4.301672e-01
   13       -3.887546e-01
   14       -8.921638e-01
   15       -2.581823e+00
   16       -6.018296e-01
   17       -1.924691e+00
   18       -3.882356e-01
   19       -2.323466e+00
   20        1.604081e+00
   21        2.919485e+00
   22       -1.694436e+00
   23        2.022891e+00
   24        1.915010e-01
   25       -3.455861e-01
   26        2.003559e+00
   27        1.484128e+00
   28        1.390690e+00
   29       -2.846631e+00
   30       -6.606758e-01
   31        1.744967e+00
   32       -3.753984e-01
   33       -4.566140e-01
   34        1.261234e+00
   35        9.592359e-01
   36       -1.327259e+00
   37        2.851638e+00
   38       -1.651809e+00
   39        2.010455e-01
   40        3.506114e-01
   41        2.313414e+00
   42        7.288043e-01
   43        1.498944e+00
   44        9.154073e-01
   45        1.354334e+00
   46        2.096742e+00
   47       -6.643202e-01
   48        3.398726e-01
   49       -2.265738e+00
   50        2.610869e+00
   51        2.015937e+00
   52       -3.511724e+00
   53       -2.821180e+00
   54       -4.264780e+00
   55        4.262911e-01
   56       -1.760069e+00
   57       -1.089222e+00
   58        1.376243e+00
   59       -3.164756e-01
   60       -2.444265e-01
   61       -9.395086e-02
   62       -1.590515e+00
   63       -9.977906e-01
   64       -1.328479e+00
   65        2.677362e-01
   66        6.204006e-01
   67        1.112353e+00
   68        1.391885e-01
   69        6.782407e-01
   70        7.012658e-01
   71       -4.594825e-01
   72        6.441856e-01
   73       -1.367082e+00
   74        1.426094e+00
   75       -1.636129e-01
   76        5.838555e-01
   77       -1.881847e+00
   78       -8.020485e-01
   79       -6.373089e-01
   80       -3.442277e+00
   81        7.450731e-01
   82        5.507775e-01
   83       -2.562259e+00
   84       -1.624215e+00
   85       -1.853312e+00
   86       -7.427122e-01
   87        1.194816e+00
   88        1.239704e-01
   89       -1.046986e-01
   90       -1.658388e+00
   91        2.569362e+00
   92       -3.232394e+00
   93       -2.419961e+00
   94       -6.719965e-01
   95        7.546720e-02
   96        2.960688e+00
   97       -2.833576e+00
   98       -4.240512e-01
   99        3.172535e-01
  100        1.671949e+00
;
param X:=
    1       -3.248465e-01
    2       -2.446566e+00
    3       -1.015725e-01
    4       -5.534665e-01
    5       -1.845217e+00
    6        1.996711e+00
    7       -1.139428e+00
    8        1.119287e+00
    9        1.461742e+00
   10       -2.297318e+00
   11       -8.525121e-02
   12        1.745332e-01
   13        7.673948e-01
   14       -8.921638e-01
   15        2.657718e-01
   16        2.001462e-01
   17        1.402060e+00
   18       -7.845979e-01
   19       -1.326847e+00
   20        8.693126e-02
   21       -3.000697e-01
   22       -1.694436e+00
   23        6.373672e-02
   24        1.950338e+00
   25       -3.455861e-01
   26       -7.080660e-01
   27        1.484128e+00
   28        4.908610e-01
   29       -2.846631e+00
   30       -3.996937e-01
   31        1.798229e+00
   32       -3.753984e-01
   33       -2.991782e-01
   34        1.261234e+00
   35        2.487977e+00
   36       -1.327259e+00
   37       -4.488582e-01
   38       -9.066151e-02
   39       -5.621627e-01
   40       -1.158138e+00
   41        2.313414e+00
   42        4.171131e-01
   43        1.759315e+00
   44       -9.449377e-02
   45        1.078766e+00
   46       -9.883113e-01
   47       -2.009629e-01
   48        3.398726e-01
   49       -2.171402e-01
   50        9.621796e-01
   51        2.015937e+00
   52       -3.511724e+00
   53        1.037361e+00
   54        3.970276e-01
   55        4.046248e-01
   56        8.468908e-01
   57       -1.089222e+00
   58       -1.165826e+00
   59       -1.386774e+00
   60       -2.444265e-01
   61       -9.395086e-02
   62        4.128065e-01
   63       -3.930971e-01
   64       -6.235396e-01
   65        2.677362e-01
   66        6.204006e-01
   67        2.239203e-01
   68        1.391885e-01
   69       -5.132684e-01
   70        7.012658e-01
   71       -4.594825e-01
   72        6.441856e-01
   73        1.035393e+00
   74       -1.896818e+00
   75       -1.097382e+00
   76       -2.968807e-01
   77       -1.773247e-01
   78        6.235867e-01
   79       -6.373089e-01
   80       -8.902600e-01
   81        7.450731e-01
   82        5.212012e-01
   83        2.716471e-01
   84       -2.217991e+00
   85       -1.853312e+00
   86       -2.705359e-01
   87       -4.792243e-01
   88        1.239704e-01
   89        6.911171e-01
   90       -1.537403e-01
   91       -1.149695e+00
   92       -1.607204e+00
   93       -1.096188e+00
   94        5.376988e-01
   95        1.696595e+00
   96       -1.778417e-01
   97        3.482101e-01
   98       -8.488245e-01
   99        2.923156e-01
  100       -1.387680e+00
;
param outliervec:=
    1    0
    2    1
    3    1
    4    1
    5    0
    6    1
    7    1
    8    1
    9    0
   10    1
   11    1
   12    1
   13    1
   14    0
   15    1
   16    1
   17    1
   18    1
   19    1
   20    1
   21    1
   22    0
   23    1
   24    1
   25    0
   26    1
   27    0
   28    1
   29    0
   30    1
   31    1
   32    0
   33    1
   34    0
   35    1
   36    0
   37    1
   38    1
   39    1
   40    1
   41    0
   42    1
   43    1
   44    1
   45    1
   46    1
   47    1
   48    0
   49    1
   50    1
   51    0
   52    0
   53    1
   54    1
   55    1
   56    1
   57    0
   58    1
   59    1
   60    0
   61    0
   62    1
   63    1
   64    1
   65    0
   66    0
   67    1
   68    0
   69    1
   70    0
   71    0
   72    0
   73    1
   74    1
   75    1
   76    1
   77    1
   78    1
   79    0
   80    1
   81    0
   82    1
   83    1
   84    1
   85    0
   86    1
   87    1
   88    0
   89    1
   90    1
   91    1
   92    1
   93    1
   94    1
   95    1
   96    1
   97    1
   98    1
   99    1
  100    1
;